
Gurobi 11.0.1 (win64) logging started Thu Mar 14 08:02:00 2024

Set parameter LogFile to value "C:\Projetos\Job_Rotation_Algorithms\Outputs\GurobiLogs\gurobi_log-output-35_ros-c29-BorbaRittModel-NoExtraConstraint-2.log"
Gurobi Optimizer version 11.0.1 build v11.0.1rc0 (win64 - Windows 10.0 (19045.2))

CPU model: 11th Gen Intel(R) Core(TM) i7-1165G7 @ 2.80GHz, instruction set [SSE2|AVX|AVX2|AVX512]
Thread count: 4 physical cores, 8 logical processors, using up to 1 threads


Gurobi 11.0.1 (win64) logging started Fri Mar 15 00:39:27 2024

Set parameter LogFile to value "C:\Projetos\Job_Rotation_Algorithms\Outputs\GurobiLogs\gurobi_log-output-35_ros-c29-BorbaRittModel-NoExtraConstraint-2.log"
Gurobi Optimizer version 11.0.1 build v11.0.1rc0 (win64 - Windows 10.0 (19045.2))

CPU model: 11th Gen Intel(R) Core(TM) i7-1165G7 @ 2.80GHz, instruction set [SSE2|AVX|AVX2|AVX512]
Thread count: 4 physical cores, 8 logical processors, using up to 1 threads


Gurobi 11.0.1 (win64) logging started Sat Mar 16 12:25:49 2024

Set parameter LogFile to value "C:\Projetos\Job_Rotation_Algorithms\Outputs\GurobiLogs\gurobi_log-output-35_ros-c29-BorbaRittModel-NoExtraConstraint-2.log"
Gurobi Optimizer version 11.0.1 build v11.0.1rc0 (win64 - Windows 10.0 (19045.2))

CPU model: 11th Gen Intel(R) Core(TM) i7-1165G7 @ 2.80GHz, instruction set [SSE2|AVX|AVX2|AVX512]
Thread count: 4 physical cores, 8 logical processors, using up to 1 threads


Gurobi 11.0.1 (win64) logging started Sat Mar 16 22:30:39 2024

Set parameter LogFile to value "C:\Projetos\Job_Rotation_Algorithms\Outputs\GurobiLogs\gurobi_log-output-35_ros-c29-BorbaRittModel-NoExtraConstraint-2.log"
Gurobi Optimizer version 11.0.1 build v11.0.1rc0 (win64 - Windows 10.0 (19045.2))

CPU model: 11th Gen Intel(R) Core(TM) i7-1165G7 @ 2.80GHz, instruction set [SSE2|AVX|AVX2|AVX512]
Thread count: 4 physical cores, 8 logical processors, using up to 1 threads

WLS license 901039 - registered to Bitka Analytics
Optimize a model with 841 rows, 296 columns and 2704 nonzeros
Model fingerprint: 0xaf246163
Variable types: 2 continuous, 294 integer (294 binary)
Coefficient statistics:
  Matrix range     [1e+00, 2e+01]
  Objective range  [1e+00, 1e+00]
  Bounds range     [1e+00, 6e+01]
  RHS range        [1e+00, 6e+01]
Presolve removed 1 rows and 1 columns
Presolve time: 0.00s
Presolved: 840 rows, 295 columns, 2702 nonzeros
Variable types: 0 continuous, 295 integer (294 binary)

Root relaxation: objective 5.000000e+01, 545 iterations, 0.02 seconds (0.01 work units)

    Nodes    |    Current Node    |     Objective Bounds      |     Work
 Expl Unexpl |  Obj  Depth IntInf | Incumbent    BestBd   Gap | It/Node Time

     0     0   50.00000    0  119          -   50.00000      -     -    0s
     0     0   50.00000    0  120          -   50.00000      -     -    0s
     0     0   50.00000    0  109          -   50.00000      -     -    0s
     0     0   50.00000    0  102          -   50.00000      -     -    0s
     0     0   50.00000    0  100          -   50.00000      -     -    0s
     0     0   50.00000    0   96          -   50.00000      -     -    0s
     0     0   50.00000    0  120          -   50.00000      -     -    0s
     0     0   50.00000    0  115          -   50.00000      -     -    0s
     0     0   50.00000    0  101          -   50.00000      -     -    0s
     0     0   50.00000    0  103          -   50.00000      -     -    0s
     0     0   50.00000    0  136          -   50.00000      -     -    0s
     0     0   50.00000    0  136          -   50.00000      -     -    0s
     0     0   50.00000    0  130          -   50.00000      -     -    0s
     0     0   50.00000    0  130          -   50.00000      -     -    0s
     0     2   50.00000    0  116          -   50.00000      -     -    0s
  1677   211 infeasible   19               -   50.00000      -  31.6    5s
H 2664   194                      38.0000000   50.00000  31.6%  57.7    8s
H 2929   194                      39.0000000   50.00000  28.2%  62.4    8s
H 2949   198                      40.0000000   50.00000  25.0%  62.5    8s
  3345   206 infeasible   26        40.00000   50.00000  25.0%  66.5   10s
  4594   220   50.00000   27  113   40.00000   50.00000  25.0%  78.6   15s

Cutting planes:
  Gomory: 1
  Cover: 1
  MIR: 1
  Flow cover: 3
  Zero half: 3
  RLT: 5
  BQP: 1

Explored 5408 nodes (468252 simplex iterations) in 19.66 seconds (20.07 work units)
Thread count was 1 (of 8 available processors)

Solution count 3: 40 39 38 

Optimal solution found (tolerance 1.00e-03)
Best objective 4.000000000000e+01, best bound 4.000000000000e+01, gap 0.0000%
